c   nvars nclauses
p cnf 20 53
-7 -9 0
8 -9 0
2 -9 0
7 -8 -2 9 0  c 9
-7 -10 0
-8 -10 0
4 -10 0
7 8 -4 10 0 c10
-7 -11 0 
8 -11 0
3 -11 0
7 -8 -3 11 0    c11
-7 -12 0
-8 -12 0
1 -12 0
7 8 -1 12 0      c12
-7 -13 0
8 -13 0
4 -13 0
7 -8 -4 13 0     c13
-7 -14 0
-8 -14 0
2 -14 0
7 8 -2 14 0     c14
8 -15 0
1 -15 0
-1 -8 15 0       c15
-8 -16 0
3 -16 0
8 -3 16 0        c16
-9 17 0
-10 17 0
9 10 -17 0     c17
-11 18 0
-12 18 0
11 12 -18 0     c18
-13 19 0
-14 19 0
13 14 -19 0     c19
-7 20 0
-15 20 0
-16 20 0
7 15 16 -20 0    c20
-7 -21 0
8 -21 0
7 -8 21 0    c21
21 -29 0
1 -29 0
-21 -1 29 0    c29
-21 -30 0 
3 -30 0
21 -3 30 0   c30
-29 22 0
-30 22 0
29 30 -22 0  c22
21 -26 -23 0
-21 26 -23 0
-21 -26 23 0
21 26 23 0      c23
-7 -24 0
27 -24 0
7 -27 24 0     c24
-7 -25 0
-6 -25 0
7 6 25 0      c25
5 -6 -26 0
-5 6 -26 0
-5 -6 26 0
5 6 26 0     c26
8 26 -27 0
-8 -26 -27 0
-8 26 27 0
8 -26 27 0       c27
22 23 -28 0
22 -23 28 0
-22 23 28 0
-22 -23 -28 0    c28
-1 0
-2 0
-3 0
4 0
-5 0
-6 0
-28 0
-7 0
8 0

